p cnf 84 397
1 2 3 4 5 6 7 0
8 9 10 11 12 13 14 0
15 16 17 18 19 20 21 0
22 23 24 25 26 27 28 0
29 30 31 32 33 34 35 0
36 37 38 39 40 41 42 0
43 44 45 46 47 48 49 0
50 51 52 53 54 55 56 0
57 58 59 60 61 62 63 0
64 65 66 67 68 69 70 0
71 72 73 74 75 76 77 0
78 79 80 81 82 83 84 0
-1 -2 0
-1 -3 0
-1 -4 0
-1 -5 0
-1 -6 0
-1 -7 0
-2 -3 0
-2 -4 0
-2 -5 0
-2 -6 0
-2 -7 0
-3 -4 0
-3 -5 0
-3 -6 0
-3 -7 0
-4 -5 0
-4 -6 0
-4 -7 0
-5 -6 0
-5 -7 0
-6 -7 0
-8 -9 0
-8 -10 0
-8 -11 0
-8 -12 0
-8 -13 0
-8 -14 0
-9 -10 0
-9 -11 0
-9 -12 0
-9 -13 0
-9 -14 0
-10 -11 0
-10 -12 0
-10 -13 0
-10 -14 0
-11 -12 0
-11 -13 0
-11 -14 0
-12 -13 0
-12 -14 0
-13 -14 0
-15 -16 0
-15 -17 0
-15 -18 0
-15 -19 0
-15 -20 0
-15 -21 0
-16 -17 0
-16 -18 0
-16 -19 0
-16 -20 0
-16 -21 0
-17 -18 0
-17 -19 0
-17 -20 0
-17 -21 0
-18 -19 0
-18 -20 0
-18 -21 0
-19 -20 0
-19 -21 0
-20 -21 0
-22 -23 0
-22 -24 0
-22 -25 0
-22 -26 0
-22 -27 0
-22 -28 0
-23 -24 0
-23 -25 0
-23 -26 0
-23 -27 0
-23 -28 0
-24 -25 0
-24 -26 0
-24 -27 0
-24 -28 0
-25 -26 0
-25 -27 0
-25 -28 0
-26 -27 0
-26 -28 0
-27 -28 0
-29 -30 0
-29 -31 0
-29 -32 0
-29 -33 0
-29 -34 0
-29 -35 0
-30 -31 0
-30 -32 0
-30 -33 0
-30 -34 0
-30 -35 0
-31 -32 0
-31 -33 0
-31 -34 0
-31 -35 0
-32 -33 0
-32 -34 0
-32 -35 0
-33 -34 0
-33 -35 0
-34 -35 0
-36 -37 0
-36 -38 0
-36 -39 0
-36 -40 0
-36 -41 0
-36 -42 0
-37 -38 0
-37 -39 0
-37 -40 0
-37 -41 0
-37 -42 0
-38 -39 0
-38 -40 0
-38 -41 0
-38 -42 0
-39 -40 0
-39 -41 0
-39 -42 0
-40 -41 0
-40 -42 0
-41 -42 0
-43 -44 0
-43 -45 0
-43 -46 0
-43 -47 0
-43 -48 0
-43 -49 0
-44 -45 0
-44 -46 0
-44 -47 0
-44 -48 0
-44 -49 0
-45 -46 0
-45 -47 0
-45 -48 0
-45 -49 0
-46 -47 0
-46 -48 0
-46 -49 0
-47 -48 0
-47 -49 0
-48 -49 0
-50 -51 0
-50 -52 0
-50 -53 0
-50 -54 0
-50 -55 0
-50 -56 0
-51 -52 0
-51 -53 0
-51 -54 0
-51 -55 0
-51 -56 0
-52 -53 0
-52 -54 0
-52 -55 0
-52 -56 0
-53 -54 0
-53 -55 0
-53 -56 0
-54 -55 0
-54 -56 0
-55 -56 0
-57 -58 0
-57 -59 0
-57 -60 0
-57 -61 0
-57 -62 0
-57 -63 0
-58 -59 0
-58 -60 0
-58 -61 0
-58 -62 0
-58 -63 0
-59 -60 0
-59 -61 0
-59 -62 0
-59 -63 0
-60 -61 0
-60 -62 0
-60 -63 0
-61 -62 0
-61 -63 0
-62 -63 0
-64 -65 0
-64 -66 0
-64 -67 0
-64 -68 0
-64 -69 0
-64 -70 0
-65 -66 0
-65 -67 0
-65 -68 0
-65 -69 0
-65 -70 0
-66 -67 0
-66 -68 0
-66 -69 0
-66 -70 0
-67 -68 0
-67 -69 0
-67 -70 0
-68 -69 0
-68 -70 0
-69 -70 0
-71 -72 0
-71 -73 0
-71 -74 0
-71 -75 0
-71 -76 0
-71 -77 0
-72 -73 0
-72 -74 0
-72 -75 0
-72 -76 0
-72 -77 0
-73 -74 0
-73 -75 0
-73 -76 0
-73 -77 0
-74 -75 0
-74 -76 0
-74 -77 0
-75 -76 0
-75 -77 0
-76 -77 0
-78 -79 0
-78 -80 0
-78 -81 0
-78 -82 0
-78 -83 0
-78 -84 0
-79 -80 0
-79 -81 0
-79 -82 0
-79 -83 0
-79 -84 0
-80 -81 0
-80 -82 0
-80 -83 0
-80 -84 0
-81 -82 0
-81 -83 0
-81 -84 0
-82 -83 0
-82 -84 0
-83 -84 0
-1 -8 0
-2 -9 0
-3 -10 0
-4 -11 0
-5 -12 0
-6 -13 0
-7 -14 0
-1 -22 0
-2 -23 0
-3 -24 0
-4 -25 0
-5 -26 0
-6 -27 0
-7 -28 0
-1 -36 0
-2 -37 0
-3 -38 0
-4 -39 0
-5 -40 0
-6 -41 0
-7 -42 0
-1 -71 0
-2 -72 0
-3 -73 0
-4 -74 0
-5 -75 0
-6 -76 0
-7 -77 0
-1 -78 0
-2 -79 0
-3 -80 0
-4 -81 0
-5 -82 0
-6 -83 0
-7 -84 0
-8 -22 0
-9 -23 0
-10 -24 0
-11 -25 0
-12 -26 0
-13 -27 0
-14 -28 0
-8 -36 0
-9 -37 0
-10 -38 0
-11 -39 0
-12 -40 0
-13 -41 0
-14 -42 0
-15 -57 0
-16 -58 0
-17 -59 0
-18 -60 0
-19 -61 0
-20 -62 0
-21 -63 0
-15 -64 0
-16 -65 0
-17 -66 0
-18 -67 0
-19 -68 0
-20 -69 0
-21 -70 0
-22 -36 0
-23 -37 0
-24 -38 0
-25 -39 0
-26 -40 0
-27 -41 0
-28 -42 0
-22 -71 0
-23 -72 0
-24 -73 0
-25 -74 0
-26 -75 0
-27 -76 0
-28 -77 0
-22 -78 0
-23 -79 0
-24 -80 0
-25 -81 0
-26 -82 0
-27 -83 0
-28 -84 0
-29 -50 0
-30 -51 0
-31 -52 0
-32 -53 0
-33 -54 0
-34 -55 0
-35 -56 0
-43 -64 0
-44 -65 0
-45 -66 0
-46 -67 0
-47 -68 0
-48 -69 0
-49 -70 0
-50 -57 0
-51 -58 0
-52 -59 0
-53 -60 0
-54 -61 0
-55 -62 0
-56 -63 0
-50 -71 0
-51 -72 0
-52 -73 0
-53 -74 0
-54 -75 0
-55 -76 0
-56 -77 0
-50 -78 0
-51 -79 0
-52 -80 0
-53 -81 0
-54 -82 0
-55 -83 0
-56 -84 0
-57 -71 0
-58 -72 0
-59 -73 0
-60 -74 0
-61 -75 0
-62 -76 0
-63 -77 0
-71 -78 0
-72 -79 0
-73 -80 0
-74 -81 0
-75 -82 0
-76 -83 0
-77 -84 0
